Instance: E101-14s.dat
Class:  4
  100 --- number of customers (no depot)
   22 --- number of vehicles
  245 --- number of items
Capacity - height - width of vehicles
   112     40     20
Node - x - y - demand
    0    35.0    35.0     0.0
    1    41.0    49.0    10.0
    2    35.0    17.0     7.0
    3    55.0    45.0    13.0
    4    55.0    20.0    19.0
    5    15.0    30.0    26.0
    6    25.0    30.0     3.0
    7    20.0    50.0     5.0
    8    10.0    43.0     9.0
    9    55.0    60.0    16.0
   10    30.0    60.0    16.0
   11    20.0    65.0    12.0
   12    50.0    35.0    19.0
   13    30.0    25.0    23.0
   14    15.0    10.0    20.0
   15    30.0     5.0     8.0
   16    10.0    20.0    19.0
   17     5.0    30.0     2.0
   18    20.0    40.0    12.0
   19    15.0    60.0    17.0
   20    45.0    65.0     9.0
   21    45.0    20.0    11.0
   22    45.0    10.0    18.0
   23    55.0     5.0    29.0
   24    65.0    35.0     3.0
   25    65.0    20.0     6.0
   26    45.0    30.0    17.0
   27    35.0    40.0    16.0
   28    41.0    37.0    16.0
   29    64.0    42.0     9.0
   30    40.0    60.0    21.0
   31    31.0    52.0    27.0
   32    35.0    69.0    23.0
   33    53.0    52.0    11.0
   34    65.0    55.0    14.0
   35    63.0    65.0     8.0
   36     2.0    60.0     5.0
   37    20.0    20.0     8.0
   38     5.0     5.0    16.0
   39    60.0    12.0    31.0
   40    40.0    25.0     9.0
   41    42.0     7.0     5.0
   42    24.0    12.0     5.0
   43    23.0     3.0     7.0
   44    11.0    14.0    18.0
   45     6.0    38.0    16.0
   46     2.0    48.0     1.0
   47     8.0    56.0    27.0
   48    13.0    52.0    36.0
   49     6.0    68.0    30.0
   50    47.0    47.0    13.0
   51    49.0    58.0    10.0
   52    27.0    43.0     9.0
   53    37.0    31.0    14.0
   54    57.0    29.0    18.0
   55    63.0    23.0     2.0
   56    53.0    12.0     6.0
   57    32.0    12.0     7.0
   58    36.0    26.0    18.0
   59    21.0    24.0    28.0
   60    17.0    34.0     3.0
   61    12.0    24.0    13.0
   62    24.0    58.0    19.0
   63    27.0    69.0    10.0
   64    15.0    77.0     9.0
   65    62.0    77.0    20.0
   66    49.0    73.0    25.0
   67    67.0     5.0    25.0
   68    56.0    39.0    36.0
   69    37.0    47.0     6.0
   70    37.0    56.0     5.0
   71    57.0    68.0    15.0
   72    47.0    16.0    25.0
   73    44.0    17.0     9.0
   74    46.0    13.0     8.0
   75    49.0    11.0    18.0
   76    49.0    42.0    13.0
   77    53.0    43.0    14.0
   78    61.0    52.0     3.0
   79    57.0    48.0    23.0
   80    56.0    37.0     6.0
   81    55.0    54.0    26.0
   82    15.0    47.0    16.0
   83    14.0    37.0    11.0
   84    11.0    31.0     7.0
   85    16.0    22.0    41.0
   86     4.0    18.0    35.0
   87    28.0    18.0    26.0
   88    26.0    52.0     9.0
   89    26.0    35.0    15.0
   90    31.0    67.0     3.0
   91    15.0    19.0     1.0
   92    22.0    22.0     2.0
   93    18.0    24.0    22.0
   94    26.0    27.0    27.0
   95    25.0    24.0    20.0
   96    22.0    27.0    11.0
   97    25.0    21.0    12.0
   98    19.0    21.0    10.0
   99    20.0    26.0     9.0
  100    18.0    18.0    17.0
Node - number of items - h - w for each item
    0   0
    1   3   12    6   19    4   29    2
    2   3    5   13    7    9    7    9
    3   2    7    6   11    2
    4   1    7   12
    5   4    5   10    5    7   15    4   20    2
    6   2    7   10   25    4
    7   4    6   11   31    3   16    3   23    2
    8   3    6   11    4   11    5    4
    9   1    6    7
   10   3    6    8   27    4   26    3
   11   4   13    4    6    4   18    3   15    3
   12   3    6    7   14    6   21    3
   13   2    7   11   29    4
   14   3   15    8    6    7   14    3
   15   3    8    7   22    3   19    2
   16   4    7   12   15    3   13    3   28    2
   17   4    6   10   29    3   12    3   22    2
   18   4    6   12    5   12    8   10    6    5
   19   4    8    4    6    4   15    3    9    3
   20   1   25    3
   21   3    8    6    7    6   30    2
   22   4   13    6    9    5    8    5   28    3
   23   1   12    2
   24   1    5   12
   25   3    6    5    4    5   28    3
   26   4    6   11   12    8    7    4   32    3
   27   3    4    6   25    3    4    3
   28   4    4   12    5    9   30    2   12    2
   29   4    6    8    5    8   18    3   29    2
   30   1    6    4
   31   4    4   12   10    8    7    6   23    4
   32   2    7   13   25    4
   33   1    5   14
   34   2    6    6   25    3
   35   1    9    3
   36   1   16    8
   37   4    5    7   13    5   15    3   23    2
   38   2    7   10   28    4
   39   2    6    7    8    5
   40   3    6   13    7    8   25    2
   41   2    5    8   30    4
   42   4    6   10    5   10   13    7   27    3
   43   2   10    5   20    3
   44   2    6   10    7    9
   45   3   12    8   12    6    8    3
   46   1    6    7
   47   2    6   11    8    4
   48   4    4    9   13    8    5    3   15    2
   49   2    6    6   31    4
   50   4    5    7    6    6    8    4   15    3
   51   2    7    7   32    3
   52   3    7    7   24    3   11    3
   53   2    6    3   30    2
   54   2    5   12   21    2
   55   1    7   11
   56   2   15    8   17    3
   57   3    5   13    5    9   30    3
   58   1    6   12
   59   4    6    7    7    4    6    4   18    3
   60   3   31    3    7    3   17    2
   61   3    6    5   14    4   13    4
   62   2    5   10   10    8
   63   1    6    3
   64   2    6    6    9    5
   65   1    7    7
   66   1    5    8
   67   1    7   10
   68   1   23    3
   69   4   11    7   26    3   16    3    5    2
   70   2    5    5   14    4
   71   3    6   13    5    9   10    3
   72   4   13    4   16    3   15    3   11    3
   73   3    6   11    7    4   12    3
   74   1   27    3
   75   4    6   11   11    4   31    3   25    3
   76   4    7    7    9    6    5    5    9    4
   77   2   10    5    7    5
   78   3    5    7   23    3   11    2
   79   4   11    7    4    6   26    3   16    2
   80   1    5    3
   81   1   14    7
   82   3   14    4   25    3   13    2
   83   1    8    7
   84   1    5   12
   85   3   14    8   29    3   17    2
   86   2    6   14   19    3
   87   1    8    5
   88   3    5   11    6    7   31    2
   89   1   15    3
   90   1   24    2
   91   1   25    2
   92   4    7    7   10    5   20    4   26    2
   93   3    6    4   28    3   12    3
   94   4    7    6   13    4    5    4   18    3
   95   1    8    8
   96   3    8   13    8    4   15    3
   97   1   22    4
   98   2   15    3    5    3
   99   2    8    9   15    5
  100   3   15    6    6    6    8    4
